
  32    4
  10   10   10   10

   0   0   0   0   0  17 2 4 5 6 7 9 10 11 17 18 25 26 27 28 29 30 31 
   2   1   0   1   4   2 23 3 
   3   2   1   0   5   3 24 20 8 
  10   3   4   0   3   3 21 20 15 
   1   7   4   0   2   2 16 14 
   4   1   3   6   0   2 22 13 
   5   2   2   0   4   2 21 13 
   6   2   4   5   0   1 12 
   6   4   2   0   2   1 12 
   2   5   0   6   3   2 24 21 
   2   3   4   0   5   2 22 21 
   2   5   0   5   4   1 13 
  10   2   6   5   0   1 19 
   4   0   2   2   5   1 23 
   5   6   8   0   3   1 22 
   8   6   0   3   2   1 20 
   7   4   4   0   4   1 21 
   9   0   3   5   1   1 20 
   9   0   3   5   5   1 32
   4   6   9   0   6   1 32
   9   3   0   8   5   1 32
   4   0   4   3  10   1 32
   3   4   5   4   0   1 32
   7   6   6   0   4   1 32
   4   4   7   4   0   1 32
   7   3   3   0   3   1 32
   1   5   0   1   6   1 32
   3   6   3   0   4   1 32
   8   2   2   0   4   1 32
   7   4   0   1   3   1 32
   7   8   3   0   3   1 32
   0   0   0   0   0   0 
